Version identifier: 12.10.0.0 | 2019-11-26 | 843d4de
CPXPARAM_WorkMem                                 16384
CPXPARAM_MIP_Limits_TreeMemory                   24576
Tried aggregator 2 times.
Aggregator did 75 substitutions.
Reduced MIP has 395 rows, 450 columns, and 1880 nonzeros.
Reduced MIP has 450 binaries, 0 generals, 0 SOSs, and 0 indicators.
Presolve time = 0,00 sec. (1,79 ticks)
Found incumbent of value 7025,000000 after 0,01 sec. (3,10 ticks)
Probing time = 0,00 sec. (0,95 ticks)
Tried aggregator 1 time.
Detecting symmetries...
MIP Presolve eliminated 75 rows and 0 columns.
MIP Presolve added 150 rows and 0 columns.
Reduced MIP has 470 rows, 450 columns, and 1955 nonzeros.
Reduced MIP has 450 binaries, 0 generals, 0 SOSs, and 0 indicators.
Presolve time = 0,00 sec. (2,49 ticks)
Probing time = 0,00 sec. (0,93 ticks)
Clique table members: 1370.
MIP emphasis: balance optimality and feasibility.
MIP search method: dynamic search.
Parallel mode: deterministic, using up to 16 threads.
Root relaxation solution time = 0,00 sec. (2,33 ticks)

        Nodes                                         Cuts/
   Node  Left     Objective  IInf  Best Integer    Best Bound    ItCnt     Gap

*     0+    0                         7025,0000        0,0000           100,00%
*     0+    0                         3863,0000        0,0000           100,00%
      0     0     1405,0000   340     3863,0000     1405,0000      179   63,63%
      0     0     1405,0000   340     3863,0000     Cuts: 217      242   63,63%
      0     0     1420,6396   340     3863,0000     Cuts: 214      406   63,22%
      0     0     1430,0768   340     3863,0000     Cuts: 198      462   62,98%
      0     0     1432,2207   340     3863,0000     Cuts: 124      495   62,92%
      0     0     1433,4577   340     3863,0000       Cuts: 3      510   62,89%
*     0+    0                         3550,0000     1433,4577            59,62%
      0     0     1823,7684   340     3550,0000     Cuts: 217     1020   48,63%
      0     0     1849,8778   340     3550,0000     Cuts: 202     1128   47,89%
      0     0     1854,6614   340     3550,0000      Cuts: 39     1216   47,76%
      0     0     1855,0453   340     3550,0000     Cuts: 128     1221   47,75%
      0     2     1855,0453   423     3550,0000     1855,0453     1221   47,75%
Elapsed time = 0,38 sec. (180,91 ticks, tree = 0,02 MB, solutions = 3)
   1209   663     3101,9967   193     3550,0000     2475,9280    64725   30,26%
   2674  1561     3528,1767    62     3550,0000     2765,8106   143063   22,09%
   4256  2526        cutoff           3550,0000     2957,5515   226583   16,69%

Performing restart 1

Repeating presolve.
Tried aggregator 2 times.
MIP Presolve eliminated 55 rows and 27 columns.
MIP Presolve added 24 rows and 0 columns.
MIP Presolve modified 137 coefficients.
Aggregator did 16 substitutions.
Reduced MIP has 423 rows, 407 columns, and 1711 nonzeros.
Reduced MIP has 407 binaries, 0 generals, 0 SOSs, and 0 indicators.
Presolve time = 0,00 sec. (2,58 ticks)
Tried aggregator 1 time.
Reduced MIP has 423 rows, 407 columns, and 1711 nonzeros.
Reduced MIP has 407 binaries, 0 generals, 0 SOSs, and 0 indicators.
Presolve time = 0,00 sec. (1,47 ticks)
Represolve time = 0,02 sec. (10,84 ticks)
   4347     0     1961,0332   338     3550,0000       Cuts: 4   244602   16,26%
   4347     0     1966,0775   338     3550,0000       Cuts: 5   244637   16,26%
   4347     0     1971,1081   338     3550,0000      Cuts: 13   244668   16,26%
   4347     0     1979,5340   338     3550,0000       Cuts: 8   244797   16,26%
   4347     2     1979,5340   404     3550,0000     2972,7136   244797   16,26%
   4364    10     2523,8114   347     3550,0000     2972,7136   246897   16,26%
   5457   717     3507,3208    29     3550,0000     2972,7136   293253   16,26%
   7138  1767     3405,3700   162     3550,0000     2972,7136   354380   16,26%
   8543  3108     3320,9395   124     3550,0000     2972,7136   426884   16,26%

Performing restart 2

Repeating presolve.
Tried aggregator 1 time.
Reduced MIP has 423 rows, 407 columns, and 1711 nonzeros.
Reduced MIP has 407 binaries, 0 generals, 0 SOSs, and 0 indicators.
Presolve time = 0,00 sec. (1,05 ticks)
Tried aggregator 1 time.
Reduced MIP has 423 rows, 407 columns, and 1711 nonzeros.
Reduced MIP has 407 binaries, 0 generals, 0 SOSs, and 0 indicators.
Presolve time = 0,00 sec. (1,47 ticks)
Represolve time = 0,03 sec. (17,46 ticks)
   9961     0     1996,9835   339     3550,0000      Cuts: 11   516496   16,26%
   9961     0     2003,8188   339     3550,0000      Fract: 3   516568   16,26%
   9961     0     2010,2601   339     3550,0000       Cuts: 8   516635   16,26%
   9961     0     2023,9335   339     3550,0000      Cuts: 18   516764   16,26%
   9961     0     2033,7088   339     3550,0000      Fract: 7   516856   16,26%
   9961     0     2041,3440   339     3550,0000      Cuts: 12   516960   16,26%
   9961     2     2041,3440   406     3550,0000     2972,7136   516960   16,26%
  17822  5008     3518,3444    25     3550,0000     3029,5810   827495   14,66%
Elapsed time = 4,80 sec. (3910,50 ticks, tree = 4,24 MB, solutions = 3)
  25455  8171        cutoff           3550,0000     3213,1516  1104568    9,49%
  32205  8180        cutoff           3550,0000     3353,1268  1371089    5,55%

Clique cuts applied:  46
Cover cuts applied:  725
Flow cuts applied:  9
Mixed integer rounding cuts applied:  102
Zero-half cuts applied:  7
Lift and project cuts applied:  3
Gomory fractional cuts applied:  42

Root node processing (before b&c):
  Real time             =    0,36 sec. (180,43 ticks)
Parallel b&c, 16 threads:
  Real time             =    8,11 sec. (6347,22 ticks)
  Sync time (average)   =    2,11 sec.
  Wait time (average)   =    0,01 sec.
                          ------------
Total (root+branch&cut) =    8,47 sec. (6527,65 ticks)
